Minimize
  - 4 y_0 - 8 y_1 - 9 y_2 - 5 y_3 - 6 y_4 - 7 y_6 - 6 y_7 - 8 y_8 - 5 y_9
   - 8 y_10 - 6 y_11 - 11 y_13 - 10 y_14 - 3 y_15 - 8 y_16 - 10 y_17
   - 4 y_18 - 7 y_19 - 8 y_20 - 6 y_21 - 2 y_22 - 9 y_23 - 7 y_24 - 6 y_25
   - 9 y_26 - 11 y_27 - y_28 - 9 y_29 - 12 y_30 - 8 y_31 - 4 y_32 - 7 y_33
   - 8 y_34 - 4 y_35 - 7 y_36 - 9 y_37 - 9 y_38 - 10 y_39 - 4 y_40
   - 11 y_41 - 2 y_42 - 8 y_43 - 11 y_44 - 8 y_45 - 9 y_46 - 9 y_47
   - 4 y_48 - 10 y_49 - 6 y_50 - 10 y_51 - 8 y_52 - 8 y_53 - 3 y_54
   - 8 y_55 - 9 y_56 - 11 y_57 - 8 y_58 - y_59 - 10 y_60 - 10 y_61 - 4 y_62
   - 12 y_63 - 5 y_64 - 11 y_65 - 13 y_66 - 8 y_67 - 4 y_68 - 2 y_69
   - 10 y_70 - 10 y_71 - 5 y_72 - 7 y_73 - 10 y_74 - 11 y_75 - 9 y_76
   - 10 y_77 - 11 y_78 - 4 y_79 - 6 y_80 - 5 y_81 - 6 y_82 - 9 y_83
   - 6 y_84 - 8 y_85 - 9 y_86 - 2 y_87 - 7 y_88 - 7 y_89 - 8 y_90 - 12 y_91
   - 11 y_92 - 2 y_93 - 12 y_94 - 3 y_95 - 2 y_96 - 3 y_97 - 5 y_98
   - 5 y_99 + 713 Constant
Subject To
 c_0: y_95 = 1
 c_1_0: y_0 + y_3 + y_48 + y_54 + y_64 + y_72 + y_95 >= 1
 c_1_1: y_1 + y_6 + y_8 + y_23 + y_24 + y_45 + y_47 + y_67 + y_83 + y_86
   + y_88 + y_89 >= 1
 c_1_2: y_2 + y_14 + y_39 + y_43 + y_45 + y_51 + y_55 + y_60 + y_61 + y_71
   + y_78 + y_85 + y_92 >= 1
 c_1_3: y_0 + y_3 + y_6 + y_11 + y_24 + y_25 + y_64 + y_72 + y_88 + y_89
   + y_98 >= 1
 c_1_4: y_4 + y_9 + y_11 + y_19 + y_36 + y_48 + y_80 + y_81 + y_82 + y_98
   + y_99 >= 1
 c_1_5: y_5 + y_12 + y_22 + y_28 + y_42 + y_59 + y_87 >= 1
 c_1_6: y_1 + y_3 + y_6 + y_11 + y_24 + y_25 + y_36 + y_43 + y_45 + y_64
   + y_80 + y_85 + y_88 + y_89 + y_98 >= 1
 c_1_7: y_7 + y_18 + y_21 + y_32 + y_33 + y_40 + y_50 + y_62 + y_68 + y_79
   + y_84 >= 1
 c_1_8: y_1 + y_8 + y_23 + y_24 + y_67 + y_83 + y_86 >= 1
 c_1_9: y_4 + y_9 + y_11 + y_48 + y_80 + y_81 + y_98 + y_99 >= 1
 c_1_10: y_10 + y_20 + y_26 + y_33 + y_34 + y_38 + y_53 >= 1
 c_1_11: y_3 + y_4 + y_6 + y_9 + y_11 + y_25 + y_36 + y_45 + y_64 + y_72
   + y_80 + y_88 + y_89 + y_98 + y_99 >= 1
 c_1_12: y_5 + y_12 + y_22 + y_28 + y_42 + y_59 + y_69 + y_87 >= 1
 c_1_13: y_13 + y_17 + y_27 + y_44 + y_49 + y_57 + y_65 + y_70 + y_74
   + y_75 + y_77 + y_91 + y_94 >= 1
 c_1_14: y_2 + y_14 + y_39 + y_41 + y_51 + y_60 + y_61 + y_71 + y_78 + y_92
   >= 1
 c_1_15: y_15 + y_22 + y_32 + y_35 + y_40 + y_42 + y_68 + y_69 + y_79
   + y_87 + y_93 + y_96 + y_97 >= 1
 c_1_16: y_16 + y_20 + y_26 + y_29 + y_31 + y_34 + y_37 + y_46 + y_50
   + y_53 + y_56 + y_58 + y_73 + y_84 >= 1
 c_1_17: y_13 + y_17 + y_27 + y_44 + y_49 + y_56 + y_57 + y_65 + y_70
   + y_74 + y_75 + y_76 + y_91 + y_94 >= 1
 c_1_18: y_7 + y_18 + y_32 + y_35 + y_40 + y_50 + y_62 + y_68 + y_79 + y_81
   + y_82 + y_84 + y_97 >= 1
 c_1_19: y_4 + y_19 + y_31 + y_50 + y_52 + y_56 + y_58 + y_73 + y_81 + y_82
   + y_84 >= 1
 c_1_20: y_10 + y_16 + y_20 + y_21 + y_26 + y_33 + y_34 + y_38 + y_46
   + y_53 + y_73 >= 1
 c_1_21: y_7 + y_20 + y_21 + y_33 + y_40 + y_84 >= 1
 c_1_22: y_5 + y_12 + y_15 + y_22 + y_28 + y_32 + y_35 + y_42 + y_59 + y_68
   + y_69 + y_87 + y_93 + y_96 + y_97 >= 1
 c_1_23: y_1 + y_8 + y_23 + y_47 + y_67 + y_83 + y_86 >= 1
 c_1_24: y_1 + y_3 + y_6 + y_8 + y_24 + y_25 + y_45 + y_64 + y_67 + y_83
   + y_86 + y_88 + y_89 >= 1
 c_1_25: y_3 + y_6 + y_11 + y_24 + y_25 + y_36 + y_45 + y_64 + y_72 + y_85
   + y_88 + y_89 + y_98 >= 1
 c_1_26: y_10 + y_16 + y_20 + y_26 + y_29 + y_34 + y_37 + y_46 + y_53
   + y_73 >= 1
 c_1_27: y_13 + y_17 + y_27 + y_44 + y_57 + y_65 + y_74 + y_91 + y_94 >= 1
 c_1_28: y_5 + y_12 + y_22 + y_28 + y_42 + y_59 + y_69 + y_87 + y_93 + y_96
   >= 1
 c_1_29: y_16 + y_26 + y_29 + y_31 + y_34 + y_37 + y_46 + y_56 + y_74
   + y_76 >= 1
 c_1_30: y_30 + y_63 + y_66 + y_75 >= 1
 c_1_31: y_16 + y_19 + y_29 + y_31 + y_37 + y_56 + y_58 + y_73 + y_74
   + y_76 >= 1
 c_1_32: y_7 + y_15 + y_18 + y_22 + y_32 + y_35 + y_40 + y_42 + y_62 + y_68
   + y_69 + y_79 + y_81 + y_93 + y_96 + y_97 >= 1
 c_1_33: y_7 + y_10 + y_20 + y_21 + y_33 + y_34 + y_38 + y_53 >= 1
 c_1_34: y_10 + y_16 + y_20 + y_26 + y_29 + y_33 + y_34 + y_37 + y_46
   + y_53 + y_73 >= 1
 c_1_35: y_15 + y_18 + y_22 + y_32 + y_35 + y_40 + y_42 + y_62 + y_68
   + y_69 + y_79 + y_87 + y_93 + y_96 + y_97 >= 1
 c_1_36: y_4 + y_6 + y_11 + y_25 + y_36 + y_43 + y_45 + y_55 + y_80 + y_85
   + y_88 + y_89 + y_98 >= 1
 c_1_37: y_16 + y_26 + y_29 + y_31 + y_34 + y_37 + y_46 + y_56 + y_58
   + y_73 + y_74 + y_76 >= 1
 c_1_38: y_10 + y_20 + y_33 + y_38 + y_53 >= 1
 c_1_39: y_2 + y_14 + y_39 + y_41 + y_51 + y_60 + y_61 + y_71 + y_78 + y_92
   >= 1
 c_1_40: y_7 + y_15 + y_18 + y_21 + y_32 + y_35 + y_40 + y_62 + y_68 + y_79
   + y_81 + y_97 >= 1
 c_1_41: y_14 + y_39 + y_41 + y_51 + y_63 + y_66 + y_71 + y_77 + y_78
   + y_92 >= 1
 c_1_42: y_5 + y_12 + y_15 + y_22 + y_28 + y_32 + y_35 + y_42 + y_59 + y_68
   + y_69 + y_87 + y_93 + y_96 + y_97 >= 1
 c_1_43: y_2 + y_6 + y_36 + y_43 + y_45 + y_47 + y_55 + y_60 + y_61 + y_83
   + y_85 + y_88 + y_89 >= 1
 c_1_44: y_13 + y_17 + y_27 + y_44 + y_49 + y_57 + y_65 + y_70 + y_74
   + y_75 + y_77 + y_91 + y_94 >= 1
 c_1_45: y_1 + y_2 + y_6 + y_11 + y_24 + y_25 + y_36 + y_43 + y_45 + y_47
   + y_83 + y_85 + y_88 + y_89 >= 1
 c_1_46: y_16 + y_20 + y_26 + y_29 + y_34 + y_37 + y_46 + y_53 >= 1
 c_1_47: y_1 + y_23 + y_43 + y_45 + y_47 + y_60 + y_61 + y_83 >= 1
 c_1_48: y_0 + y_4 + y_9 + y_48 + y_54 + y_81 + y_96 + y_98 + y_99 >= 1
 c_1_49: y_13 + y_17 + y_44 + y_49 + y_57 + y_65 + y_70 + y_74 + y_75
   + y_76 + y_77 + y_90 >= 1
 c_1_50: y_7 + y_16 + y_18 + y_19 + y_50 + y_58 + y_62 + y_73 + y_79 + y_81
   + y_82 + y_84 >= 1
 c_1_51: y_2 + y_14 + y_39 + y_41 + y_51 + y_71 + y_77 + y_78 + y_90 + y_92
   >= 1
 c_1_52: y_19 + y_52 + y_55 + y_58 + y_80 + y_90 >= 1
 c_1_53: y_10 + y_16 + y_20 + y_26 + y_33 + y_34 + y_38 + y_46 + y_53 >= 1
 c_1_54: y_0 + y_48 + y_54 + y_64 + y_72 + y_95 >= 1
 c_1_55: y_2 + y_36 + y_43 + y_52 + y_55 + y_80 + y_85 + y_90 >= 1
 c_1_56: y_16 + y_17 + y_19 + y_29 + y_31 + y_37 + y_56 + y_58 + y_73
   + y_74 + y_76 >= 1
 c_1_57: y_13 + y_17 + y_27 + y_44 + y_49 + y_57 + y_65 + y_70 + y_74
   + y_75 + y_77 + y_91 + y_94 >= 1
 c_1_58: y_16 + y_19 + y_31 + y_37 + y_50 + y_52 + y_56 + y_58 + y_73
   + y_76 + y_82 + y_84 >= 1
 c_1_59: y_5 + y_12 + y_22 + y_28 + y_42 + y_59 + y_69 + y_87 + y_93 + y_96
   >= 1
 c_1_60: y_2 + y_14 + y_39 + y_43 + y_47 + y_60 + y_61 + y_71 + y_92 >= 1
 c_1_61: y_2 + y_14 + y_39 + y_43 + y_47 + y_60 + y_61 + y_71 + y_85 + y_92
   >= 1
 c_1_62: y_7 + y_18 + y_32 + y_35 + y_40 + y_50 + y_62 + y_68 + y_79 + y_81
   + y_82 + y_84 + y_97 >= 1
 c_1_63: y_30 + y_41 + y_63 + y_66 + y_78 >= 1
 c_1_64: y_0 + y_3 + y_6 + y_11 + y_24 + y_25 + y_54 + y_64 + y_72 + y_88
   >= 1
 c_1_65: y_13 + y_17 + y_27 + y_44 + y_49 + y_57 + y_65 + y_70 + y_74
   + y_75 + y_77 + y_91 + y_94 >= 1
 c_1_66: y_30 + y_41 + y_63 + y_66 + y_75 >= 1
 c_1_67: y_1 + y_8 + y_23 + y_24 + y_67 + y_83 + y_86 >= 1
 c_1_68: y_7 + y_15 + y_18 + y_22 + y_32 + y_35 + y_40 + y_42 + y_62 + y_68
   + y_69 + y_79 + y_81 + y_93 + y_96 + y_97 >= 1
 c_1_69: y_12 + y_15 + y_22 + y_28 + y_32 + y_35 + y_42 + y_59 + y_68
   + y_69 + y_79 + y_87 + y_93 + y_96 + y_97 >= 1
 c_1_70: y_13 + y_17 + y_44 + y_49 + y_57 + y_65 + y_70 + y_75 + y_77
   + y_91 + y_94 >= 1
 c_1_71: y_2 + y_14 + y_39 + y_41 + y_51 + y_60 + y_61 + y_71 + y_78 + y_92
   >= 1
 c_1_72: y_0 + y_3 + y_11 + y_25 + y_54 + y_64 + y_72 >= 1
 c_1_73: y_16 + y_19 + y_20 + y_26 + y_31 + y_34 + y_37 + y_50 + y_56
   + y_58 + y_73 + y_82 + y_84 >= 1
 c_1_74: y_13 + y_17 + y_27 + y_29 + y_31 + y_37 + y_44 + y_49 + y_56
   + y_57 + y_65 + y_74 + y_76 + y_91 + y_94 >= 1
 c_1_75: y_13 + y_17 + y_30 + y_44 + y_49 + y_57 + y_65 + y_66 + y_70
   + y_75 + y_77 + y_91 + y_94 >= 1
 c_1_76: y_17 + y_29 + y_31 + y_37 + y_49 + y_56 + y_58 + y_74 + y_76 >= 1
 c_1_77: y_13 + y_41 + y_44 + y_49 + y_51 + y_57 + y_65 + y_70 + y_75
   + y_77 + y_78 + y_90 >= 1
 c_1_78: y_2 + y_14 + y_39 + y_41 + y_51 + y_63 + y_71 + y_77 + y_78 + y_92
   >= 1
 c_1_79: y_7 + y_15 + y_18 + y_32 + y_35 + y_40 + y_50 + y_62 + y_68 + y_69
   + y_79 + y_81 + y_93 + y_96 + y_97 >= 1
 c_1_80: y_4 + y_6 + y_9 + y_11 + y_36 + y_52 + y_55 + y_80 + y_98 + y_99
   >= 1
 c_1_81: y_4 + y_9 + y_18 + y_19 + y_32 + y_40 + y_48 + y_50 + y_62 + y_68
   + y_79 + y_81 + y_82 + y_84 + y_97 + y_99 >= 1
 c_1_82: y_4 + y_18 + y_19 + y_50 + y_58 + y_62 + y_73 + y_81 + y_82 + y_84
   >= 1
 c_1_83: y_1 + y_8 + y_23 + y_24 + y_43 + y_45 + y_47 + y_67 + y_83 + y_86
   + y_89 >= 1
 c_1_84: y_7 + y_16 + y_18 + y_19 + y_21 + y_50 + y_58 + y_62 + y_73 + y_81
   + y_82 + y_84 >= 1
 c_1_85: y_2 + y_6 + y_25 + y_36 + y_43 + y_45 + y_55 + y_61 + y_85 + y_88
   + y_89 >= 1
 c_1_86: y_1 + y_8 + y_23 + y_24 + y_67 + y_83 + y_86 >= 1
 c_1_87: y_5 + y_12 + y_15 + y_22 + y_28 + y_35 + y_42 + y_59 + y_69 + y_87
   + y_93 + y_96 + y_97 >= 1
 c_1_88: y_1 + y_3 + y_6 + y_11 + y_24 + y_25 + y_36 + y_43 + y_45 + y_64
   + y_85 + y_88 + y_89 + y_98 >= 1
 c_1_89: y_1 + y_3 + y_6 + y_11 + y_24 + y_25 + y_36 + y_43 + y_45 + y_83
   + y_85 + y_88 + y_89 >= 1
 c_1_90: y_49 + y_51 + y_52 + y_55 + y_77 + y_90 >= 1
 c_1_91: y_13 + y_17 + y_27 + y_44 + y_57 + y_65 + y_70 + y_74 + y_75
   + y_91 + y_94 >= 1
 c_1_92: y_2 + y_14 + y_39 + y_41 + y_51 + y_60 + y_61 + y_71 + y_78 + y_92
   >= 1
 c_1_93: y_15 + y_22 + y_28 + y_32 + y_35 + y_42 + y_59 + y_68 + y_69
   + y_79 + y_87 + y_93 + y_96 + y_97 >= 1
 c_1_94: y_13 + y_17 + y_27 + y_44 + y_57 + y_65 + y_70 + y_74 + y_75
   + y_91 + y_94 >= 1
 c_1_95: y_0 + y_54 + y_95 >= 1
 c_1_96: y_15 + y_22 + y_28 + y_32 + y_35 + y_42 + y_48 + y_59 + y_68
   + y_69 + y_79 + y_87 + y_93 + y_96 + y_97 >= 1
 c_1_97: y_15 + y_18 + y_22 + y_32 + y_35 + y_40 + y_42 + y_62 + y_68
   + y_69 + y_79 + y_81 + y_87 + y_93 + y_96 + y_97 >= 1
 c_1_98: y_3 + y_4 + y_6 + y_9 + y_11 + y_25 + y_36 + y_48 + y_80 + y_88
   + y_98 + y_99 >= 1
 c_1_99: y_4 + y_9 + y_11 + y_48 + y_80 + y_81 + y_98 + y_99 >= 1
Bounds
 Constant = 1
Binaries
 y_0 y_1 y_2 y_3 y_4 y_5 y_6 y_7 y_8 y_9 y_10 y_11 y_12 y_13 y_14 y_15 y_16
 y_17 y_18 y_19 y_20 y_21 y_22 y_23 y_24 y_25 y_26 y_27 y_28 y_29 y_30 y_31
 y_32 y_33 y_34 y_35 y_36 y_37 y_38 y_39 y_40 y_41 y_42 y_43 y_44 y_45 y_46
 y_47 y_48 y_49 y_50 y_51 y_52 y_53 y_54 y_55 y_56 y_57 y_58 y_59 y_60 y_61
 y_62 y_63 y_64 y_65 y_66 y_67 y_68 y_69 y_70 y_71 y_72 y_73 y_74 y_75 y_76
 y_77 y_78 y_79 y_80 y_81 y_82 y_83 y_84 y_85 y_86 y_87 y_88 y_89 y_90 y_91
 y_92 y_93 y_94 y_95 y_96 y_97 y_98 y_99
End
